NAME : local_5
TYPE : ATSP
DIMENSION : 7
EDGE_WEIGHT_TYPE : EXPLICIT
EDGE_WEIGHT_FORMAT : FULL_MATRIX
EDGE_WEIGHT_SECTION
0 343 10000000 10000000 356 425 589 
0 0 10000000 10000000 617 708 644 
0 10000000 0 636 10000000 10000000 528 
0 10000000 636 0 10000000 10000000 866 
0 617 10000000 10000000 0 153 784 
0 708 10000000 10000000 153 0 898 
0 10000000 10000000 10000000 10000000 10000000 0 
EOF